p tw 70 9451 2 
1 3 
1 4 
1 5 
1 6 
1 7 
1 8 
1 9 
1 10 
1 11 
1 12 
1 13 
1 14 
1 15 
1 16 
1 17 
1 18 
1 19 
1 23 
1 34 
1 41 
1 47 
1 49 
1 55 
1 63 
1 66 
1 70 
2 3 
2 4 
2 5 
2 6 
2 7 
2 8 
2 9 
2 10 
2 11 
2 18 
2 20 
2 21 
2 22 
2 23 
2 24 
2 25 
2 26 
2 27 
2 28 
2 43 
2 51 
2 56 
2 61 
2 65 
2 66 
2 69 
3 4 
3 5 
3 6 
3 7 
3 8 
3 9 
3 10 
3 11 
3 19 
3 27 
3 28 
3 29 
3 30 
3 31 
3 32 
3 33 
3 34 
3 35 
3 40 
3 45 
3 48 
3 52 
3 65 
3 67 
3 70 
4 5 
4 6 
4 7 
4 8 
4 9 
4 10 
4 12 
4 13 
4 20 
4 21 
4 28 
4 29 
4 36 
4 37 
4 38 
4 39 
4 40 
4 41 
4 42 
4 43 
4 44 
4 45 
4 46 
4 47 
5 6 
5 7 
5 8 
5 9 
5 10 
5 14 
5 16 
5 22 
5 26 
5 29 
5 30 
5 36 
5 40 
5 42 
5 48 
5 49 
5 50 
5 51 
5 54 
5 60 
5 63 
5 68 
5 69 
6 7 
6 8 
6 9 
6 10 
6 15 
6 18 
6 22 
6 24 
6 31 
6 35 
6 36 
6 37 
6 43 
6 47 
6 52 
6 53 
6 54 
6 55 
6 58 
6 62 
6 67 
6 68 
7 8 
7 9 
7 10 
7 12 
7 16 
7 23 
7 26 
7 31 
7 34 
7 38 
7 42 
7 44 
7 48 
7 53 
7 56 
7 57 
7 58 
7 59 
7 62 
7 64 
7 65 
8 9 
8 10 
8 14 
8 15 
8 24 
8 25 
8 32 
8 33 
8 38 
8 39 
8 45 
8 46 
8 49 
8 52 
8 56 
8 59 
8 60 
8 61 
8 62 
8 63 
9 10 
9 13 
9 17 
9 21 
9 27 
9 30 
9 33 
9 39 
9 41 
9 50 
9 53 
9 54 
9 57 
9 58 
9 60 
9 61 
9 64 
9 66 
9 67 
10 17 
10 19 
10 20 
10 25 
10 32 
10 35 
10 37 
10 44 
10 46 
10 50 
10 51 
10 55 
10 57 
10 59 
10 64 
10 68 
10 69 
10 70 
11 12 
11 13 
11 14 
11 15 
11 16 
11 17 
11 18 
11 19 
11 20 
11 21 
11 22 
11 23 
11 24 
11 25 
11 26 
11 27 
11 28 
11 29 
11 30 
11 31 
11 32 
11 33 
11 34 
11 35 
12 13 
12 14 
12 15 
12 16 
12 17 
12 18 
12 19 
12 20 
12 26 
12 28 
12 34 
12 36 
12 37 
12 38 
12 39 
12 40 
12 41 
12 42 
12 53 
12 59 
12 62 
12 64 
12 65 
13 14 
13 15 
13 16 
13 17 
13 18 
13 19 
13 21 
13 27 
13 29 
13 33 
13 41 
13 42 
13 43 
13 44 
13 45 
13 46 
13 47 
13 50 
13 54 
13 58 
13 61 
13 64 
14 15 
14 16 
14 17 
14 18 
14 19 
14 22 
14 25 
14 30 
14 33 
14 36 
14 39 
14 42 
14 46 
14 48 
14 49 
14 50 
14 51 
14 52 
14 56 
14 62 
14 63 
15 16 
15 17 
15 18 
15 19 
15 22 
15 24 
15 31 
15 32 
15 37 
15 38 
15 43 
15 45 
15 49 
15 52 
15 53 
15 54 
15 55 
15 59 
15 60 
15 61 
16 17 
16 18 
16 19 
16 23 
16 26 
16 29 
16 31 
16 38 
16 40 
16 44 
16 48 
16 54 
16 56 
16 57 
16 58 
16 60 
16 63 
16 68 
16 69 
17 18 
17 19 
17 21 
17 25 
17 30 
17 32 
17 37 
17 39 
17 44 
17 51 
17 53 
17 57 
17 60 
17 64 
17 66 
17 67 
17 68 
17 70 
18 19 
18 24 
18 28 
18 35 
18 36 
18 43 
18 47 
18 51 
18 56 
18 58 
18 61 
18 62 
18 65 
18 66 
18 67 
18 68 
18 69 
19 20 
19 27 
19 35 
19 40 
19 45 
19 46 
19 48 
19 50 
19 52 
19 55 
19 57 
19 59 
19 65 
19 67 
19 69 
19 70 
20 21 
20 22 
20 23 
20 24 
20 25 
20 26 
20 27 
20 28 
20 35 
20 36 
20 37 
20 38 
20 39 
20 40 
20 41 
20 46 
20 50 
20 55 
20 57 
20 59 
20 69 
21 22 
21 23 
21 24 
21 25 
21 26 
21 27 
21 29 
21 30 
21 39 
21 42 
21 43 
21 44 
21 45 
21 46 
21 47 
21 53 
21 57 
21 60 
21 66 
21 67 
22 23 
22 24 
22 25 
22 26 
22 27 
22 30 
22 31 
22 36 
22 37 
22 42 
22 43 
22 48 
22 49 
22 50 
22 51 
22 52 
22 53 
22 54 
22 55 
23 24 
23 25 
23 26 
23 27 
23 31 
23 34 
23 38 
23 41 
23 44 
23 47 
23 48 
23 49 
23 55 
23 56 
23 57 
23 58 
23 63 
23 66 
23 70 
24 25 
24 26 
24 27 
24 32 
24 35 
24 36 
24 38 
24 45 
24 47 
24 49 
24 58 
24 59 
24 60 
24 61 
24 62 
24 67 
24 68 
25 26 
25 27 
25 32 
25 33 
25 37 
25 39 
25 44 
25 46 
25 51 
25 52 
25 56 
25 62 
25 63 
25 64 
25 68 
25 70 
26 27 
26 29 
26 34 
26 40 
26 42 
26 53 
26 54 
26 59 
26 60 
26 62 
26 63 
26 64 
26 65 
26 68 
26 69 
27 33 
27 40 
27 41 
27 45 
27 48 
27 50 
27 52 
27 54 
27 58 
27 61 
27 64 
27 65 
27 67 
27 70 
28 29 
28 30 
28 31 
28 32 
28 33 
28 34 
28 35 
28 36 
28 37 
28 38 
28 39 
28 40 
28 41 
28 43 
28 51 
28 56 
28 61 
28 65 
28 66 
28 69 
29 30 
29 31 
29 32 
29 33 
29 34 
29 35 
29 40 
29 42 
29 43 
29 44 
29 45 
29 46 
29 47 
29 54 
29 60 
29 63 
29 68 
29 69 
30 31 
30 32 
30 33 
30 34 
30 35 
30 36 
30 39 
30 42 
30 48 
30 49 
30 50 
30 51 
30 53 
30 57 
30 60 
30 66 
30 67 
31 32 
31 33 
31 34 
31 35 
31 37 
31 38 
31 43 
31 44 
31 48 
31 52 
31 53 
31 54 
31 55 
31 56 
31 57 
31 58 
32 33 
32 34 
32 35 
32 37 
32 38 
32 44 
32 45 
32 49 
32 51 
32 59 
32 60 
32 61 
32 64 
32 68 
32 70 
33 34 
33 35 
33 39 
33 41 
33 46 
33 50 
33 52 
33 54 
33 56 
33 58 
33 61 
33 62 
33 63 
33 64 
34 35 
34 41 
34 42 
34 47 
34 49 
34 53 
34 55 
34 59 
34 62 
34 63 
34 64 
34 65 
34 66 
34 70 
35 36 
35 46 
35 47 
35 50 
35 55 
35 57 
35 58 
35 59 
35 62 
35 67 
35 68 
35 69 
36 37 
36 38 
36 39 
36 40 
36 41 
36 42 
36 47 
36 48 
36 49 
36 50 
36 51 
36 58 
36 62 
36 67 
36 68 
37 38 
37 39 
37 40 
37 41 
37 43 
37 44 
37 51 
37 52 
37 53 
37 54 
37 55 
37 64 
37 68 
37 70 
38 39 
38 40 
38 41 
38 44 
38 45 
38 48 
38 49 
38 56 
38 57 
38 58 
38 59 
38 60 
38 61 
39 40 
39 41 
39 46 
39 52 
39 53 
39 56 
39 57 
39 60 
39 62 
39 63 
39 66 
39 67 
40 41 
40 45 
40 48 
40 52 
40 54 
40 60 
40 63 
40 65 
40 67 
40 68 
40 69 
40 70 
41 47 
41 49 
41 50 
41 54 
41 55 
41 58 
41 61 
41 63 
41 64 
41 66 
41 70 
42 43 
42 44 
42 45 
42 46 
42 47 
42 48 
42 49 
42 50 
42 51 
42 53 
42 59 
42 62 
42 64 
42 65 
43 44 
43 45 
43 46 
43 47 
43 51 
43 52 
43 53 
43 54 
43 55 
43 56 
43 61 
43 65 
43 66 
43 69 
44 45 
44 46 
44 47 
44 48 
44 51 
44 56 
44 57 
44 58 
44 64 
44 68 
44 70 
45 46 
45 47 
45 48 
45 49 
45 52 
45 59 
45 60 
45 61 
45 65 
45 67 
45 70 
46 47 
46 50 
46 52 
46 55 
46 56 
46 57 
46 59 
46 62 
46 63 
46 69 
47 49 
47 55 
47 58 
47 62 
47 63 
47 66 
47 67 
47 68 
47 70 
48 49 
48 50 
48 51 
48 52 
48 56 
48 57 
48 58 
48 65 
48 67 
48 70 
49 50 
49 51 
49 55 
49 59 
49 60 
49 61 
49 63 
49 66 
49 70 
50 51 
50 54 
50 55 
50 57 
50 58 
50 59 
50 61 
50 64 
50 69 
51 56 
51 61 
51 64 
51 65 
51 66 
51 68 
51 69 
51 70 
52 53 
52 54 
52 55 
52 56 
52 62 
52 63 
52 65 
52 67 
52 70 
53 54 
53 55 
53 57 
53 59 
53 60 
53 62 
53 64 
53 65 
53 66 
53 67 
54 55 
54 58 
54 60 
54 61 
54 63 
54 64 
54 68 
54 69 
55 57 
55 59 
55 63 
55 66 
55 69 
55 70 
56 57 
56 58 
56 61 
56 62 
56 63 
56 65 
56 66 
56 69 
57 58 
57 59 
57 60 
57 66 
57 67 
57 69 
58 61 
58 62 
58 64 
58 67 
58 68 
59 60 
59 61 
59 62 
59 64 
59 65 
59 69 
60 61 
60 63 
60 66 
60 67 
60 68 
60 69 
61 64 
61 65 
61 66 
61 69 
62 63 
62 64 
62 65 
62 67 
62 68 
63 66 
63 68 
63 69 
63 70 
64 65 
64 68 
64 70 
65 66 
65 67 
65 69 
65 70 
66 67 
66 69 
66 70 
67 68 
67 70 
68 69 
68 70 
